nbObj= 45;
Capacity= 620;
Profit =[ 68,23,65,107,63,13,79,80,100,17,74,71,67,67,27,24,68,28,87,75,35,56,41,19,94,16,27,34,48,56,14,106,64,16,37,36,15,22,97,33,14,27,39,105,98];
Weight =[ 148,124,117,37,136,124,117,68,111,105,136,167,148,186,217,217,198,167,204,130,204,55,80,179,105,62,148,55,111,55,49,192,130,68,68,192,155,124,86,136,80,136,130,43,124];
